Route #1: 9 34 8 36 44 17 3 13 14 35 47 20 46 33 16 27 5 23 49 18 51 50 10 24 39
Route #2: 45 6 37 30 52 38 48 28 11
Route #3: 
Route #4: 12 32 4 29 29 25 40 40 15 22
Route #5: 26 19 31 2 21 43
Route #6: 42 41 7
Route #7: 1
cost 821.5744626982155
